!-   =========== EcoLoop baseline building model ===========
!
! Derived from the EnergyPlus distribution example MovableExtInsulationSimple.idf
! (NREL, EnergyPlus 26.1) — a single-zone model with an ideal-loads air system.
! Starting from a shipped, input-processor-clean example rather than hand-writing
! the geometry is deliberate: the positional field order of
! BuildingSurface:Detailed is exactly the kind of thing that is wrong in silence.
!
! Changes from the example, and why each one is here:
!   * Timestep 6 -> 4, so a step is 15 minutes and matches the scenario.
!   * Run Simulation for Weather File Run Periods No -> Yes, so the .epw drives it.
!   * Single-heating/single-cooling thermostats -> one DualSetpoint thermostat, so
!     the agent controls a dead-band rather than a single temperature.
!   * Added the four actuated Schedule:Constant objects below.
!   * Added occupancy, lighting, equipment, ventilation and a CO2 balance, so the
!     model reports the IAQ and occupancy the agent reasons about.
!
! THE AGENT'S CONTROL SURFACE. sim/energyplus.py resolves these four by name
! through the runtime API and overwrites them inside the timestep callback, which
! is what makes set-points feed into the *active* instance with no file rewriting
! and no restart. The values here are only starting points.
!
!   HEATING_SETPOINT_SCH   heating set-point, degrees C
!   COOLING_SETPOINT_SCH   cooling set-point, degrees C
!   LIGHTING_SCH           lighting output, 0.0 - 1.0
!   VENTILATION_SCH        mechanical ventilation, air changes per hour
!
! Occupancy is NOT actuated. The controller responds to it but must never be able
! to change it, or the savings comparison stops being a controlled experiment.

!-Generator IDFEditor 1.34
!-Option OriginalOrderTop UseSpecialFormat
!-NOTE: All comments with '!-' are ignored by the IDFEditor and are generated automatically.
!-      Use '!' comments if they need to be retained when using the IDFEditor.
! MovableExtInsulationSimple.idf
! Basic file description: Basic test of the exterior movable insulation
! Run:      2 design days, winter design day has full solar.
! Building: Fictional 1 zone building with 4 exterior walls, no roof, no floor.  The south
!           facing wall has movable insulation on it.
! Internal: None
! System:   Purchased air
! Plant:    None
! SolDis=FullInteriorAndExterior, Aniso, Detailed Interior and Exterior Convection

  Version,26.1;

  Timestep,4;

  Building,
    NONE,                    !- Name
    0,                       !- North Axis {deg}
    Suburbs,                 !- Terrain
    3.9999999E-02,           !- Loads Convergence Tolerance Value {W}
    0.4000000,               !- Temperature Convergence Tolerance Value {deltaC}
    FullInteriorAndExterior, !- Solar Distribution
    25,                      !- Maximum Number of Warmup Days
    6;                       !- Minimum Number of Warmup Days

  HeatBalanceAlgorithm,ConductionTransferFunction;

  SurfaceConvectionAlgorithm:Inside,TARP;

  SurfaceConvectionAlgorithm:Outside,DOE-2;

  SimulationControl,
    No,                      !- Do Zone Sizing Calculation
    No,                      !- Do System Sizing Calculation
    No,                      !- Do Plant Sizing Calculation
    No,                      !- Run Simulation for Sizing Periods
    Yes,                     !- Run Simulation for Weather File Run Periods
    No,                      !- Do HVAC Sizing Simulation for Sizing Periods
    1;                       !- Maximum Number of HVAC Sizing Simulation Passes

  RunPeriod,
    Run Period 1,            !- Name
    1,                       !- Begin Month
    1,                       !- Begin Day of Month
    ,                        !- Begin Year
    12,                      !- End Month
    31,                      !- End Day of Month
    ,                        !- End Year
    Tuesday,                 !- Day of Week for Start Day
    Yes,                     !- Use Weather File Holidays and Special Days
    Yes,                     !- Use Weather File Daylight Saving Period
    No,                      !- Apply Weekend Holiday Rule
    Yes,                     !- Use Weather File Rain Indicators
    Yes;                     !- Use Weather File Snow Indicators

  Site:Location,
    DENVER_STAPLETON_CO_USA_WMO_724690,  !- Name
    39.77,                   !- Latitude {deg}
    -104.87,                 !- Longitude {deg}
    -7.00,                   !- Time Zone {hr}
    1611.00;                 !- Elevation {m}

! DENVER_STAPLETON_CO_USA Annual Heating 99.6%, MaxDB=-20°C

  SizingPeriod:DesignDay,
    DENVER_STAPLETON Ann Htg 99.6% Condns DB,  !- Name
    12,                      !- Month
    21,                      !- Day of Month
    WinterDesignDay,         !- Day Type
    -20,                     !- Maximum Dry-Bulb Temperature {C}
    0.0,                     !- Daily Dry-Bulb Temperature Range {deltaC}
    ,                        !- Dry-Bulb Temperature Range Modifier Type
    ,                        !- Dry-Bulb Temperature Range Modifier Day Schedule Name
    Wetbulb,                 !- Humidity Condition Type
    -20,                     !- Wetbulb or DewPoint at Maximum Dry-Bulb {C}
    ,                        !- Humidity Condition Day Schedule Name
    ,                        !- Humidity Ratio at Maximum Dry-Bulb {kgWater/kgDryAir}
    ,                        !- Enthalpy at Maximum Dry-Bulb {J/kg}
    ,                        !- Daily Wet-Bulb Temperature Range {deltaC}
    83411.,                  !- Barometric Pressure {Pa}
    2.3,                     !- Wind Speed {m/s}
    180,                     !- Wind Direction {deg}
    No,                      !- Rain Indicator
    No,                      !- Snow Indicator
    No,                      !- Daylight Saving Time Indicator
    ASHRAEClearSky,          !- Solar Model Indicator
    ,                        !- Beam Solar Day Schedule Name
    ,                        !- Diffuse Solar Day Schedule Name
    ,                        !- ASHRAE Clear Sky Optical Depth for Beam Irradiance (taub) {dimensionless}
    ,                        !- ASHRAE Clear Sky Optical Depth for Diffuse Irradiance (taud) {dimensionless}
    0.00;                    !- Sky Clearness

! DENVER_STAPLETON_CO_USA Annual Cooling (DB=>MWB) .4%, MaxDB=34.1°C MWB=15.8°C

  SizingPeriod:DesignDay,
    DENVER_STAPLETON Ann Clg .4% Condns DB=>MWB,  !- Name
    7,                       !- Month
    21,                      !- Day of Month
    SummerDesignDay,         !- Day Type
    34.1,                    !- Maximum Dry-Bulb Temperature {C}
    15.2,                    !- Daily Dry-Bulb Temperature Range {deltaC}
    ,                        !- Dry-Bulb Temperature Range Modifier Type
    ,                        !- Dry-Bulb Temperature Range Modifier Day Schedule Name
    Wetbulb,                 !- Humidity Condition Type
    15.8,                    !- Wetbulb or DewPoint at Maximum Dry-Bulb {C}
    ,                        !- Humidity Condition Day Schedule Name
    ,                        !- Humidity Ratio at Maximum Dry-Bulb {kgWater/kgDryAir}
    ,                        !- Enthalpy at Maximum Dry-Bulb {J/kg}
    ,                        !- Daily Wet-Bulb Temperature Range {deltaC}
    83411.,                  !- Barometric Pressure {Pa}
    4,                       !- Wind Speed {m/s}
    120,                     !- Wind Direction {deg}
    No,                      !- Rain Indicator
    No,                      !- Snow Indicator
    No,                      !- Daylight Saving Time Indicator
    ASHRAEClearSky,          !- Solar Model Indicator
    ,                        !- Beam Solar Day Schedule Name
    ,                        !- Diffuse Solar Day Schedule Name
    ,                        !- ASHRAE Clear Sky Optical Depth for Beam Irradiance (taub) {dimensionless}
    ,                        !- ASHRAE Clear Sky Optical Depth for Diffuse Irradiance (taud) {dimensionless}
    1.00;                    !- Sky Clearness

  Material,
    A1 - 1 IN STUCCO,        !- Name
    Smooth,                  !- Roughness
    2.5389841E-02,           !- Thickness {m}
    0.6918309,               !- Conductivity {W/m-K}
    1858.142,                !- Density {kg/m3}
    836.8000,                !- Specific Heat {J/kg-K}
    0.9000000,               !- Thermal Absorptance
    0.9200000,               !- Solar Absorptance
    0.9200000;               !- Visible Absorptance

  Material,
    C4 - 4 IN COMMON BRICK,  !- Name
    Rough,                   !- Roughness
    0.1014984,               !- Thickness {m}
    0.7264224,               !- Conductivity {W/m-K}
    1922.216,                !- Density {kg/m3}
    836.8000,                !- Specific Heat {J/kg-K}
    0.9000000,               !- Thermal Absorptance
    0.7600000,               !- Solar Absorptance
    0.7600000;               !- Visible Absorptance

  Material,
    E1 - 3 / 4 IN PLASTER OR GYP BOARD,  !- Name
    Smooth,                  !- Roughness
    1.9050000E-02,           !- Thickness {m}
    0.7264224,               !- Conductivity {W/m-K}
    1601.846,                !- Density {kg/m3}
    836.8000,                !- Specific Heat {J/kg-K}
    0.9000000,               !- Thermal Absorptance
    0.9200000,               !- Solar Absorptance
    0.9200000;               !- Visible Absorptance

  Material,
    C6 - 8 IN CLAY TILE,     !- Name
    Smooth,                  !- Roughness
    0.2033016,               !- Thickness {m}
    0.5707605,               !- Conductivity {W/m-K}
    1121.292,                !- Density {kg/m3}
    836.8000,                !- Specific Heat {J/kg-K}
    0.9000000,               !- Thermal Absorptance
    0.8200000,               !- Solar Absorptance
    0.8200000;               !- Visible Absorptance

  Material,
    C10 - 8 IN HW CONCRETE,  !- Name
    MediumRough,             !- Roughness
    0.2033016,               !- Thickness {m}
    1.729577,                !- Conductivity {W/m-K}
    2242.585,                !- Density {kg/m3}
    836.8000,                !- Specific Heat {J/kg-K}
    0.9000000,               !- Thermal Absorptance
    0.6500000,               !- Solar Absorptance
    0.6500000;               !- Visible Absorptance

  Material,
    E2 - 1 / 2 IN SLAG OR STONE,  !- Name
    Rough,                   !- Roughness
    1.2710161E-02,           !- Thickness {m}
    1.435549,                !- Conductivity {W/m-K}
    881.0155,                !- Density {kg/m3}
    1673.600,                !- Specific Heat {J/kg-K}
    0.9000000,               !- Thermal Absorptance
    0.5500000,               !- Solar Absorptance
    0.5500000;               !- Visible Absorptance

  Material,
    E3 - 3 / 8 IN FELT AND MEMBRANE,  !- Name
    Rough,                   !- Roughness
    9.5402403E-03,           !- Thickness {m}
    0.1902535,               !- Conductivity {W/m-K}
    1121.292,                !- Density {kg/m3}
    1673.600,                !- Specific Heat {J/kg-K}
    0.9000000,               !- Thermal Absorptance
    0.7500000,               !- Solar Absorptance
    0.7500000;               !- Visible Absorptance

  Material,
    B5 - 1 IN DENSE INSULATION,  !- Name
    VeryRough,               !- Roughness
    2.5E-02,                 !- Thickness {m}
    4.0E-02,                 !- Conductivity {W/m-K}
    91.30524,                !- Density {kg/m3}
    836.8000,                !- Specific Heat {J/kg-K}
    0.9000000,               !- Thermal Absorptance
    0.5000000,               !- Solar Absorptance
    0.5000000;               !- Visible Absorptance

  Material,
    C12 - 2 IN HW CONCRETE,  !- Name
    MediumRough,             !- Roughness
    5.0901599E-02,           !- Thickness {m}
    1.729577,                !- Conductivity {W/m-K}
    2242.585,                !- Density {kg/m3}
    836.8000,                !- Specific Heat {J/kg-K}
    0.9000000,               !- Thermal Absorptance
    0.6500000,               !- Solar Absorptance
    0.6500000;               !- Visible Absorptance

  WindowMaterial:Glazing,
    SINGLEPANE,              !- Name
    SpectralAverage,         !- Optical Data Type
    ,                        !- Window Glass Spectral Data Set Name
    0.05,                    !- Thickness {m}
    0.90,                    !- Solar Transmittance at Normal Incidence
    0.031,                   !- Front Side Solar Reflectance at Normal Incidence
    0.031,                   !- Back Side Solar Reflectance at Normal Incidence
    0.90,                    !- Visible Transmittance at Normal Incidence
    0.05,                    !- Front Side Visible Reflectance at Normal Incidence
    0.05,                    !- Back Side Visible Reflectance at Normal Incidence
    0.0,                     !- Infrared Transmittance at Normal Incidence
    0.84,                    !- Front Side Infrared Hemispherical Emissivity
    0.84,                    !- Back Side Infrared Hemispherical Emissivity
    0.04;                    !- Conductivity {W/m-K}

  Material:NoMass,
    SINGLEPANEOPAQUE,        !- Name
    VerySmooth,              !- Roughness
    1.25,                    !- Thermal Resistance {m2-K/W}
    0.8400000,               !- Thermal Absorptance
    0.7500000,               !- Solar Absorptance
    0.7500000;               !- Visible Absorptance

  Material:NoMass,
    R13LAYER,                !- Name
    Rough,                   !- Roughness
    2.290965,                !- Thermal Resistance {m2-K/W}
    0.9000000,               !- Thermal Absorptance
    0.7500000,               !- Solar Absorptance
    0.7500000;               !- Visible Absorptance

  Construction,
    EXTWALL80,               !- Name
    A1 - 1 IN STUCCO,        !- Outside Layer
    C4 - 4 IN COMMON BRICK,  !- Layer 2
    E1 - 3 / 4 IN PLASTER OR GYP BOARD;  !- Layer 3

  Construction,
    FLOOR SLAB 8 IN,         !- Name
    C10 - 8 IN HW CONCRETE;  !- Outside Layer

  Construction,
    ROOF34,                  !- Name
    E2 - 1 / 2 IN SLAG OR STONE,  !- Outside Layer
    E3 - 3 / 8 IN FELT AND MEMBRANE,  !- Layer 2
    B5 - 1 IN DENSE INSULATION,  !- Layer 3
    C12 - 2 IN HW CONCRETE;  !- Layer 4

  ScheduleTypeLimits,
    Any Number;              !- Name

  ScheduleTypeLimits,
    Fraction,                !- Name
    0.0,                     !- Lower Limit Value
    1.0,                     !- Upper Limit Value
    CONTINUOUS;              !- Numeric Type

  ScheduleTypeLimits,
    Temperature,             !- Name
    -60,                     !- Lower Limit Value
    200,                     !- Upper Limit Value
    CONTINUOUS,              !- Numeric Type
    Temperature;             !- Unit Type

  ScheduleTypeLimits,
    Control Type,            !- Name
    0,                       !- Lower Limit Value
    4,                       !- Upper Limit Value
    DISCRETE;                !- Numeric Type

  Site:GroundTemperature:BuildingSurface,20.03,20.03,20.13,20.30,20.43,20.52,20.62,20.77,20.78,20.55,20.44,20.20;

  Zone,
    ZONE ONE,                !- Name
    0,                       !- Direction of Relative North {deg}
    0,                       !- X Origin {m}
    0,                       !- Y Origin {m}
    0,                       !- Z Origin {m}
    1,                       !- Type
    1,                       !- Multiplier
    autocalculate,           !- Ceiling Height {m}
    autocalculate;           !- Volume {m3}

  GlobalGeometryRules,
    UpperLeftCorner,         !- Starting Vertex Position
    CounterClockWise,        !- Vertex Entry Direction
    World;                   !- Coordinate System

  BuildingSurface:Detailed,
    Zn001:Wall001,           !- Name
    Wall,                    !- Surface Type
    EXTWALL80,               !- Construction Name
    ZONE ONE,                !- Zone Name
    ,                        !- Space Name
    Outdoors,                !- Outside Boundary Condition
    ,                        !- Outside Boundary Condition Object
    SunExposed,              !- Sun Exposure
    WindExposed,             !- Wind Exposure
    0.5000000,               !- View Factor to Ground
    4,                       !- Number of Vertices
    0,0,4.572000,  !- X,Y,Z ==> Vertex 1 {m}
    0,0,0,  !- X,Y,Z ==> Vertex 2 {m}
    15.24000,0,0,  !- X,Y,Z ==> Vertex 3 {m}
    15.24000,0,4.572000;  !- X,Y,Z ==> Vertex 4 {m}

  SurfaceControl:MovableInsulation,
    Outside,                 !- Insulation Type
    Zn001:Wall001,           !- Surface Name
    SINGLEPANEOPAQUE,        !- Material Name
    ON;                      !- Schedule Name

  BuildingSurface:Detailed,
    Zn001:Wall002,           !- Name
    Wall,                    !- Surface Type
    EXTWALL80,               !- Construction Name
    ZONE ONE,                !- Zone Name
    ,                        !- Space Name
    Outdoors,                !- Outside Boundary Condition
    ,                        !- Outside Boundary Condition Object
    SunExposed,              !- Sun Exposure
    WindExposed,             !- Wind Exposure
    0.5000000,               !- View Factor to Ground
    4,                       !- Number of Vertices
    15.24000,0,4.572000,  !- X,Y,Z ==> Vertex 1 {m}
    15.24000,0,0,  !- X,Y,Z ==> Vertex 2 {m}
    15.24000,15.24000,0,  !- X,Y,Z ==> Vertex 3 {m}
    15.24000,15.24000,4.572000;  !- X,Y,Z ==> Vertex 4 {m}

  BuildingSurface:Detailed,
    Zn001:Wall003,           !- Name
    Wall,                    !- Surface Type
    EXTWALL80,               !- Construction Name
    ZONE ONE,                !- Zone Name
    ,                        !- Space Name
    Outdoors,                !- Outside Boundary Condition
    ,                        !- Outside Boundary Condition Object
    SunExposed,              !- Sun Exposure
    WindExposed,             !- Wind Exposure
    0.5000000,               !- View Factor to Ground
    4,                       !- Number of Vertices
    15.24000,15.24000,4.572000,  !- X,Y,Z ==> Vertex 1 {m}
    15.24000,15.24000,0,  !- X,Y,Z ==> Vertex 2 {m}
    0,15.24000,0,  !- X,Y,Z ==> Vertex 3 {m}
    0,15.24000,4.572000;  !- X,Y,Z ==> Vertex 4 {m}

  BuildingSurface:Detailed,
    Zn001:Wall004,           !- Name
    Wall,                    !- Surface Type
    EXTWALL80,               !- Construction Name
    ZONE ONE,                !- Zone Name
    ,                        !- Space Name
    Outdoors,                !- Outside Boundary Condition
    ,                        !- Outside Boundary Condition Object
    SunExposed,              !- Sun Exposure
    WindExposed,             !- Wind Exposure
    0.5000000,               !- View Factor to Ground
    4,                       !- Number of Vertices
    0,15.24000,4.572000,  !- X,Y,Z ==> Vertex 1 {m}
    0,15.24000,0,  !- X,Y,Z ==> Vertex 2 {m}
    0,0,0,  !- X,Y,Z ==> Vertex 3 {m}
    0,0,4.572000;  !- X,Y,Z ==> Vertex 4 {m}

  BuildingSurface:Detailed,
    Zn001:Flr001,            !- Name
    Floor,                   !- Surface Type
    FLOOR SLAB 8 IN,         !- Construction Name
    ZONE ONE,                !- Zone Name
    ,                        !- Space Name
    Surface,                 !- Outside Boundary Condition
    Zn001:Flr001,            !- Outside Boundary Condition Object
    NoSun,                   !- Sun Exposure
    NoWind,                  !- Wind Exposure
    1.000000,                !- View Factor to Ground
    4,                       !- Number of Vertices
    0,0,0,  !- X,Y,Z ==> Vertex 1 {m}
    0,15.24,0,  !- X,Y,Z ==> Vertex 2 {m}
    15.24,15.24,0,  !- X,Y,Z ==> Vertex 3 {m}
    15.24,0,0;  !- X,Y,Z ==> Vertex 4 {m}

  BuildingSurface:Detailed,
    Zn002:Roof001,           !- Name
    Roof,                    !- Surface Type
    ROOF34,                  !- Construction Name
    ZONE ONE,                !- Zone Name
    ,                        !- Space Name
    Outdoors,                !- Outside Boundary Condition
    ,                        !- Outside Boundary Condition Object
    SunExposed,              !- Sun Exposure
    WindExposed,             !- Wind Exposure
    0,                       !- View Factor to Ground
    4,                       !- Number of Vertices
    0,0,4.572,  !- X,Y,Z ==> Vertex 1 {m}
    15.24,0,4.572,  !- X,Y,Z ==> Vertex 2 {m}
    15.24,15.24,4.572,  !- X,Y,Z ==> Vertex 3 {m}
    0,15.24,4.572;  !- X,Y,Z ==> Vertex 4 {m}

  ZoneControl:Thermostat,
    Zone 1 Thermostat,       !- Name
    ZONE ONE,                !- Zone or ZoneList Name
    CONTROL_TYPE_SCH,        !- Control Type Schedule Name
    ThermostatSetpoint:DualSetpoint,  !- Control 1 Object Type
    Zone One Setpoints;      !- Control 1 Name

  ThermostatSetpoint:DualSetpoint,
    Zone One Setpoints,      !- Name
    HEATING_SETPOINT_SCH,    !- Heating Setpoint Temperature Schedule Name
    COOLING_SETPOINT_SCH;    !- Cooling Setpoint Temperature Schedule Name

  ZoneHVAC:EquipmentConnections,
    ZONE ONE,                !- Zone Name
    Zone1Equipment,          !- Zone Conditioning Equipment List Name
    Zone1Inlets,             !- Zone Air Inlet Node or NodeList Name
    ,                        !- Zone Air Exhaust Node or NodeList Name
    NODE_4,                  !- Zone Air Node Name
    NODE_5;                  !- Zone Return Air Node or NodeList Name

  ZoneHVAC:EquipmentList,
    Zone1Equipment,          !- Name
    SequentialLoad,          !- Load Distribution Scheme
    ZoneHVAC:IdealLoadsAirSystem,  !- Zone Equipment 1 Object Type
    Zone1Air,                !- Zone Equipment 1 Name
    1,                       !- Zone Equipment 1 Cooling Sequence
    1,                       !- Zone Equipment 1 Heating or No-Load Sequence
    ,                        !- Zone Equipment 1 Sequential Cooling Fraction Schedule Name
    ;                        !- Zone Equipment 1 Sequential Heating Fraction Schedule Name

  ZoneHVAC:IdealLoadsAirSystem,
    Zone1Air,                !- Name
    ,                        !- Availability Schedule Name
    NODE_1,                  !- Zone Supply Air Node Name
    ,                        !- Zone Exhaust Air Node Name
    ,                        !- System Inlet Air Node Name
    50,                      !- Maximum Heating Supply Air Temperature {C}
    13,                      !- Minimum Cooling Supply Air Temperature {C}
    0.015,                   !- Maximum Heating Supply Air Humidity Ratio {kgWater/kgDryAir}
    0.009,                   !- Minimum Cooling Supply Air Humidity Ratio {kgWater/kgDryAir}
    NoLimit,                 !- Heating Limit
    autosize,                !- Maximum Heating Air Flow Rate {m3/s}
    ,                        !- Maximum Sensible Heating Capacity {W}
    NoLimit,                 !- Cooling Limit
    autosize,                !- Maximum Cooling Air Flow Rate {m3/s}
    ,                        !- Maximum Total Cooling Capacity {W}
    ,                        !- Heating Availability Schedule Name
    ,                        !- Cooling Availability Schedule Name
    ConstantSupplyHumidityRatio,  !- Dehumidification Control Type
    ,                        !- Cooling Sensible Heat Ratio {dimensionless}
    ConstantSupplyHumidityRatio,  !- Humidification Control Type
    ,                        !- Design Specification Outdoor Air Object Name
    ,                        !- Outdoor Air Inlet Node Name
    ,                        !- Demand Controlled Ventilation Type
    ,                        !- Outdoor Air Economizer Type
    ,                        !- Heat Recovery Type
    ,                        !- Sensible Heat Recovery Effectiveness {dimensionless}
    ;                        !- Latent Heat Recovery Effectiveness {dimensionless}

  NodeList,
    Zone1Inlets,             !- Name
    NODE_1;                  !- Node 1 Name

  Output:Variable,*,Site Outdoor Air Drybulb Temperature,timestep;

  Output:Variable,*,Zone Mean Air Temperature,timestep;

  Output:Variable,*,Zone Mean Radiant Temperature,timestep;

  Output:Variable,*,Zone Air System Sensible Heating Energy,timestep;

  Output:Variable,*,Zone Air System Sensible Cooling Energy,timestep;

  Output:Variable,*,Zone Air System Sensible Cooling Rate,timestep;

  Output:Variable,*,Zone Air System Sensible Heating Rate,timestep;

  Output:Variable,*,Zone Air Temperature,timestep;

  Output:Variable,*,Surface Inside Face Temperature,timestep;

  Output:Variable,*,Surface Outside Face Temperature,timestep;

  Output:VariableDictionary,Regular;

  Output:Surfaces:Drawing,dxf;

  Output:Constructions,Constructions;

  Output:Meter:MeterFileOnly,EnergyTransfer:Building,hourly;

  Output:Meter:MeterFileOnly,EnergyTransfer:Facility,hourly;

  OutputControl:Table:Style,
    HTML;                    !- Column Separator

  Output:Table:SummaryReports,
    AllSummary;              !- Report 1 Name

  Schedule:Compact,
    ON,                      !- Name
    FRACTION,                !- Schedule Type Limits Name
    Through: 12/31,          !- Field 1
    For: Alldays,            !- Field 2
    Until: 24:00,1.00;       !- Field 3

  Schedule:Compact,
    HEATING SETPOINTS,       !- Name
    TEMPERATURE,             !- Schedule Type Limits Name
    Through: 12/31,          !- Field 1
    For: Alldays,            !- Field 2
    Until: 7:00,15.00,       !- Field 3
    Until: 17:00,20.00,      !- Field 5
    Until: 24:00,15.00;      !- Field 7

  Schedule:Compact,
    COOLING SETPOINTS,       !- Name
    TEMPERATURE,             !- Schedule Type Limits Name
    Through: 12/31,          !- Field 1
    For: Alldays,            !- Field 2
    Until: 7:00,30.00,       !- Field 3
    Until: 20:00,23.00,      !- Field 5
    Until: 24:00,30.00;      !- Field 7

  Schedule:Compact,
    ZONE CONTROL TYPE SCHED, !- Name
    CONTROL TYPE,            !- Schedule Type Limits Name
    Through: 3/31,           !- Field 1
    For: Alldays,            !- Field 2
    Until: 24:00,1.00,       !- Field 3
    Through: 9/30,           !- Field 5
    For: Alldays,            !- Field 6
    Until: 24:00,2.00,       !- Field 7
    Through: 12/31,          !- Field 9
    For: Alldays,            !- Field 10
    Until: 24:00,1.00;       !- Field 11


!-   =========== EcoLoop additions ===========

! --- the agent's four actuation points ---

  Schedule:Constant, HEATING_SETPOINT_SCH, Temperature, 21.0;
  Schedule:Constant, COOLING_SETPOINT_SCH, Temperature, 24.0;
  Schedule:Constant, LIGHTING_SCH, Fraction, 1.0;
  Schedule:Constant, VENTILATION_SCH, Any Number, 2.0;

! Dual set-point control, held constant at type 4.
  Schedule:Constant, CONTROL_TYPE_SCH, Control Type, 4;

  Schedule:Constant, ACTIVITY_SCH, Any Number, 120.0;
  Schedule:Constant, CO2_OUTDOOR_SCH, Any Number, 420.0;

! --- occupancy: part of the scenario, not of the control surface ---

  Schedule:Compact,
    OCCUPANCY_SCH,           !- Name
    Fraction,                !- Schedule Type Limits Name
    Through: 12/31,          !- Field 1
    For: Weekdays,           !- Field 2
    Until: 08:00,0.0,        !- Field 3
    Until: 09:00,0.5,        !- Field 5
    Until: 17:00,1.0,        !- Field 7
    Until: 18:00,0.5,        !- Field 9
    Until: 24:00,0.0,        !- Field 11
    For: AllOtherDays,       !- Field 13
    Until: 24:00,0.0;        !- Field 14

  People,
    Zone One People,         !- Name
    ZONE ONE,                !- Zone or ZoneList or Space or SpaceList Name
    OCCUPANCY_SCH,           !- Number of People Schedule Name
    People,                  !- Number of People Calculation Method
    20,                      !- Number of People
    ,                        !- People per Floor Area {person/m2}
    ,                        !- Floor Area per Person {m2/person}
    0.3,                     !- Fraction Radiant
    ,                        !- Sensible Heat Fraction
    ACTIVITY_SCH,            !- Activity Level Schedule Name
    3.82E-8;                 !- Carbon Dioxide Generation Rate {m3/s-W}

  Lights,
    Zone One Lights,         !- Name
    ZONE ONE,                !- Zone or ZoneList or Space or SpaceList Name
    LIGHTING_SCH,            !- Schedule Name
    LightingLevel,           !- Design Level Calculation Method
    2000.0,                  !- Lighting Level {W}
    ,                        !- Watts per Floor Area {W/m2}
    ,                        !- Watts per Person {W/person}
    0.0,                     !- Return Air Fraction
    0.2,                     !- Fraction Radiant
    0.6;                     !- Fraction Visible

  ElectricEquipment,
    Zone One Equipment,      !- Name
    ZONE ONE,                !- Zone or ZoneList or Space or SpaceList Name
    OCCUPANCY_SCH,           !- Schedule Name
    EquipmentLevel,          !- Design Level Calculation Method
    1500.0,                  !- Design Level {W}
    ,                        !- Watts per Floor Area {W/m2}
    ,                        !- Watts per Person {W/person}
    0.0,                     !- Fraction Latent
    0.3,                     !- Fraction Radiant
    0.0;                     !- Fraction Lost

! --- ventilation: air change rate is actuated ---

  ZoneVentilation:DesignFlowRate,
    Zone One Ventilation,    !- Name
    ZONE ONE,                !- Zone or ZoneList or Space or SpaceList Name
    VENTILATION_SCH,         !- Schedule Name
    AirChanges/Hour,         !- Design Flow Rate Calculation Method
    ,                        !- Design Flow Rate {m3/s}
    ,                        !- Flow Rate per Floor Area {m3/s-m2}
    ,                        !- Flow Rate per Person {m3/s-person}
    1.0,                     !- Air Changes per Hour {1/hr}
    Intake,                  !- Ventilation Type
    100.0,                   !- Fan Pressure Rise {Pa}
    0.7,                     !- Fan Total Efficiency
    1.0,                     !- Constant Term Coefficient
    0.0,                     !- Temperature Term Coefficient
    0.0,                     !- Velocity Term Coefficient
    0.0;                     !- Velocity Squared Term Coefficient

  ZoneInfiltration:DesignFlowRate,
    Zone One Infiltration,   !- Name
    ZONE ONE,                !- Zone or ZoneList or Space or SpaceList Name
    ON,                      !- Schedule Name
    AirChanges/Hour,         !- Design Flow Rate Calculation Method
    ,                        !- Design Flow Rate {m3/s}
    ,                        !- Flow Rate per Floor Area {m3/s-m2}
    ,                        !- Flow Rate per Exterior Surface Area {m3/s-m2}
    0.2,                     !- Air Changes per Hour {1/hr}
    1.0,                     !- Constant Term Coefficient
    0.0,                     !- Temperature Term Coefficient
    0.0,                     !- Velocity Term Coefficient
    0.0;                     !- Velocity Squared Term Coefficient

! --- CO2 balance, feeding the IAQ sensor the agent ventilates against ---

  ZoneAirContaminantBalance,
    Yes,                     !- Carbon Dioxide Concentration
    CO2_OUTDOOR_SCH;         !- Outdoor Carbon Dioxide Schedule Name

! --- the sensors sim/energyplus.py reads through api.exchange ---

  Output:Variable,ZONE ONE,Zone People Occupant Count,timestep;
  Output:Variable,ZONE ONE,Zone Air CO2 Concentration,timestep;
  Output:Variable,ZONE ONE,Zone Air Relative Humidity,timestep;
  Output:Variable,Whole Building,Facility Total Electricity Demand Rate,timestep;
